p wcnf 117 234 235 
1 -35 -114 0 
1 -80 -10 0 
1 33 89 0 
1 -102 -99 0 
1 -61 56 0 
1 94 -111 0 
1 117 96 0 
1 -42 -23 0 
1 -115 -4 0 
1 82 -98 0 
1 98 13 0 
1 73 -4 0 
1 53 18 0 
1 -98 94 0 
1 -60 -7 0 
1 -6 -37 0 
1 104 73 0 
1 93 -33 0 
1 -14 67 0 
1 103 -51 0 
1 -92 -73 0 
1 -22 -108 0 
1 -17 -32 0 
1 20 -58 0 
1 22 74 0 
1 62 2 0 
1 -104 28 0 
1 30 55 0 
1 93 74 0 
1 93 19 0 
1 -84 -112 0 
1 -84 91 0 
1 60 24 0 
1 80 8 0 
1 54 -36 0 
1 -76 -18 0 
1 -3 36 0 
1 -101 -93 0 
1 -79 -18 0 
1 40 -39 0 
1 -2 -97 0 
1 -31 -44 0 
1 -44 49 0 
1 17 5 0 
1 -95 43 0 
1 30 70 0 
1 -39 -93 0 
1 37 68 0 
1 9 -83 0 
1 -14 -45 0 
1 -76 62 0 
1 1 17 0 
1 71 9 0 
1 -44 109 0 
1 -71 58 0 
1 99 -3 0 
1 13 -14 0 
1 -42 26 0 
1 43 111 0 
1 47 4 0 
1 -9 86 0 
1 86 -114 0 
1 -70 16 0 
1 -61 -37 0 
1 -79 97 0 
1 -82 4 0 
1 109 -69 0 
1 100 20 0 
1 -45 -9 0 
1 -13 -116 0 
1 87 91 0 
1 -95 64 0 
1 5 -14 0 
1 -67 103 0 
1 -46 -35 0 
1 -103 24 0 
1 -18 27 0 
1 -47 44 0 
1 3 18 0 
1 -59 89 0 
1 101 110 0 
1 60 -78 0 
1 33 -90 0 
1 26 11 0 
1 -73 -14 0 
1 -113 -67 0 
1 -65 -93 0 
1 27 -101 0 
1 75 -24 0 
1 -90 -93 0 
1 -44 80 0 
1 92 27 0 
1 48 -1 0 
1 45 -106 0 
1 -56 29 0 
1 19 -111 0 
1 10 -110 0 
1 -92 -88 0 
1 -107 -26 0 
1 -72 95 0 
1 14 -47 0 
1 -106 -1 0 
1 -10 19 0 
1 -16 68 0 
1 -108 80 0 
1 94 -75 0 
1 32 56 0 
1 -85 -83 0 
1 -24 -20 0 
1 -74 49 0 
1 10 -24 0 
1 -93 75 0 
1 102 -52 0 
1 108 90 0 
1 43 115 0 
1 -5 105 0 
1 -74 -24 0 
1 -100 34 0 
1 -14 -116 0 
1 -105 -91 0 
1 83 93 0 
1 79 72 0 
1 3 28 0 
1 -70 1 0 
1 48 -60 0 
1 77 43 0 
1 -29 18 0 
1 49 -78 0 
1 -7 -62 0 
1 -34 -91 0 
1 55 117 0 
1 73 -11 0 
1 -81 -29 0 
1 11 90 0 
1 48 -80 0 
1 -52 31 0 
1 -100 -18 0 
1 -5 -34 0 
1 -49 1 0 
1 -64 -38 0 
1 -103 -84 0 
1 66 -97 0 
1 -81 98 0 
1 -27 113 0 
1 -96 12 0 
1 -30 40 0 
1 -87 44 0 
1 -60 -16 0 
1 -9 -41 0 
1 103 -69 0 
1 96 -33 0 
1 60 -15 0 
1 -18 54 0 
1 -89 -102 0 
1 85 -99 0 
1 39 -85 0 
1 -44 -91 0 
1 -81 72 0 
1 56 -11 0 
1 19 -41 0 
1 -3 -112 0 
1 -42 -104 0 
1 -40 -59 0 
1 -110 89 0 
1 -18 -106 0 
1 86 103 0 
1 102 -32 0 
1 -13 -38 0 
1 -48 -3 0 
1 -93 -2 0 
1 60 -19 0 
1 -1 39 0 
1 -38 -16 0 
1 95 -42 0 
1 51 -50 0 
1 116 -61 0 
1 -70 -19 0 
1 43 -6 0 
1 -50 64 0 
1 -46 -115 0 
1 103 -90 0 
1 115 -97 0 
1 84 23 0 
1 30 95 0 
1 61 -2 0 
1 28 -39 0 
1 -41 11 0 
1 79 -66 0 
1 100 -4 0 
1 -36 -39 0 
1 116 -48 0 
1 49 102 0 
1 49 -3 0 
1 -31 -13 0 
1 42 -23 0 
1 -105 20 0 
1 -115 -72 0 
1 -28 -64 0 
1 23 -19 0 
1 75 -98 0 
1 -90 5 0 
1 -89 -47 0 
1 56 51 0 
1 97 -25 0 
1 74 47 0 
1 -5 -43 0 
1 -59 -37 0 
1 -91 -76 0 
1 -8 73 0 
1 -44 63 0 
1 -78 61 0 
1 74 -2 0 
1 -39 27 0 
1 67 -106 0 
1 9 106 0 
1 -53 -39 0 
1 68 -44 0 
1 13 93 0 
1 -2 -71 0 
1 -90 88 0 
1 -93 88 0 
1 57 88 0 
1 29 54 0 
1 109 -87 0 
1 56 -59 0 
1 35 40 0 
1 68 -106 0 
1 -91 -56 0 
1 74 -63 0 
1 -81 -54 0 
1 78 67 0 
1 48 79 0 
1 -4 60 0 
1 78 16 0 
